0 0 0 0
0 1 0 0
0 2 0 0
0 3 0 0
0 4 0 4
0 5 2 8
0 6 0 1
0 7 0 5
0 8 0 9
0 9 0 8
0 10 0 8
0 11 2 9
0 12 0 6
0 13 0 11
0 14 0 9
0 15 0 14
0 16 0 11
0 17 0 5
0 18 0 14
0 19 0 14
0 20 0 6
0 21 0 18
0 22 2 11
0 23 0 14
0 24 0 18
0 25 0 14
0 26 0 20
0 27 0 17
0 28 0 25
0 29 2 26
0 30 0 23
0 31 0 31
